RT is False
Default write of storage_offers_DA.csv just to have a file (but constraint should be inactive)
Reading model...
...model read.
creating competitive generators file...
...competitive generators recorded.
Loading data...
.. day-ahead data read.
Compiling instance...
...instance created.
Creating Offer Mitigation (model will solve as dispatch if TRUE)...
...storage offer mitigation file created
Converting model to MPEC...
...converted
NOTE: initial MIP solve with only storage competitive to get feasible solution
Solving...

Welcome to IBM(R) ILOG(R) CPLEX(R) Interactive Optimizer 12.9.0.0
  with Simplex, Mixed Integer & Barrier Optimizers
5725-A06 5725-A29 5724-Y48 5724-Y49 5724-Y54 5724-Y55 5655-Y21
Copyright IBM Corp. 1988, 2019.  All Rights Reserved.

Type 'help' for a list of available commands.
Type 'help' followed by a command name for more
information on commands.

CPLEX> Logfile 'cplex.log' closed.
Logfile 'C:\Users\Luke\Desktop\competitiveMPEC_12.6\logs\tmp3mtdduoy.cplex.log' open.
CPLEX> New value for parallel optimization mode: -1
CPLEX> New value for mixed integer optimality gap tolerance: 0.01
CPLEX> New value for integrality tolerance: 1e-09
CPLEX> New value for feasibility tolerance: 0.01
CPLEX> New value for deterministic time limit in ticks: 175000
CPLEX> Problem 'C:\Users\Luke\Desktop\competitiveMPEC_12.6\logs\tmp7isxtvl4.pyomo.lp' read.
Read time = 0.19 sec. (13.79 ticks)
CPLEX> Problem name         : C:\Users\Luke\Desktop\competitiveMPEC_12.6\logs\tmp7isxtvl4.pyomo.lp
Objective sense      : Maximize
Variables            :   53321  [Nneg: 1,  Box: 21806,  Free: 4416,
                                 Binary: 27098]
Objective nonzeros   :    8945
Linear constraints   :  122188  [Less: 41007,  Greater: 58612,  Equal: 22569]
  Nonzeros           :  288542
  RHS nonzeros       :   66971

Variables            : Min LB: -5000.000        Max UB: 1000000.       
Objective nonzeros   : Min   : 1.600000         Max   : 793.8000       
Linear constraints   :
  Nonzeros           : Min   : 0.8500000        Max   : 1000000.       
  RHS nonzeros       : Min   : 1.000000         Max   : 1000000.       
CPLEX> CPXPARAM_Parallel                                -1
CPXPARAM_Simplex_Tolerances_Feasibility          0.01
CPXPARAM_DetTimeLimit                            175000
CPXPARAM_MIP_Tolerances_MIPGap                   0.01
CPXPARAM_MIP_Tolerances_Integrality              1.0000000000000001e-09
Tried aggregator 3 times.
MIP Presolve eliminated 88267 rows and 19073 columns.
MIP Presolve added 3339 rows and 0 columns.
MIP Presolve modified 24544 coefficients.
Aggregator did 12872 substitutions.
Reduced MIP has 24388 rows, 20794 columns, and 68403 nonzeros.
Reduced MIP has 8217 binaries, 0 generals, 0 SOSs, and 0 indicators.
Presolve time = 0.22 sec. (170.49 ticks)
Probing fixed 404 vars, tightened 2862 bounds.
Probing time = 1.41 sec. (880.25 ticks)
Tried aggregator 2 times.
MIP Presolve eliminated 902 rows and 808 columns.
MIP Presolve modified 2154 coefficients.
Aggregator did 58 substitutions.
Reduced MIP has 23428 rows, 19928 columns, and 65617 nonzeros.
Reduced MIP has 7813 binaries, 0 generals, 0 SOSs, and 0 indicators.
Presolve time = 0.08 sec. (68.10 ticks)
Probing time = 0.03 sec. (15.69 ticks)
Clique table members: 6240.
MIP emphasis: balance optimality and feasibility.
MIP search method: dynamic search.
Parallel mode: opportunistic, using up to 24 threads.
Root relaxation solution time = 0.31 sec. (281.98 ticks)

        Nodes                                         Cuts/
   Node  Left     Objective  IInf  Best Integer    Best Bound    ItCnt     Gap

      0     0    62655.3398  1741                  62655.3398     6466         
      0     0    61440.8696   614                   Cuts: 568     6747         
      0     0    61262.7653   568                   Cuts: 235     6846         
      0     0    61255.8828   541                   Cuts: 107     6877         
      0     0    60916.9197   522                    Cuts: 46     6894         
      0     0    60915.9163   512                    Cuts: 47     6903         
      0     0    60907.9108   509                    Cuts: 38     6912         
      0     0    60901.9205   502                    Cuts: 44     6921         
      0     0    60901.9205   496                    Cuts: 41     6927         
      0     0    60901.9205   489                    Cuts: 42     6936         
      0     2    60901.9205   489                    Cuts: 10     6936         
Elapsed time = 8.81 sec. (5881.05 ticks, tree = 0.02 MB, solutions = 0)
    235   119    54148.6583   441                  60176.6526     8251         
    708   229    57881.4148   465                  60176.6526     9636         
   1248   584    54088.7474   409                  60176.6526    14261         
   2331  1085    57763.0230   431                  60176.6526    16161         
   3179  2476    50641.7733   401                  60176.6526    16708         
   3768  3291    54088.7474   383                  60176.6526    17080         
   4590  3136    57800.0443   414                  60176.6526    16919         
   5634  4149    54022.5190   390                  60176.6526    17666         
   6798  5419    58083.8048   398                  60176.6526    17844         
*  9781+ 8993                        50639.9435    60176.6526            18.83%
Elapsed time = 16.86 sec. (8874.63 ticks, tree = 75.53 MB, solutions = 8)
* 10320  8991      integral     0    54088.7474    60176.6526    19654   11.26%
* 10386  8186      integral     0    58102.6896    60176.6526    18582    3.57%
* 10567  8724      integral     0    58745.9953    60176.6526    19363    2.44%
* 10570  8835      integral     0    59859.4281    60176.6526    19504    0.53%

Clique cuts applied:  18
Implied bound cuts applied:  18
Flow cuts applied:  356
Mixed integer rounding cuts applied:  37
Gomory fractional cuts applied:  44

Root node processing (before b&c):
  Real time             =    8.16 sec. (5843.24 ticks)
Parallel b&c, 24 threads:
  Real time             =    9.14 sec. (3540.95 ticks)
  Sync time (average)   =    0.24 sec.
  Wait time (average)   =    0.00 sec.
                          ------------
Total (root+branch&cut) =   17.30 sec. (9384.19 ticks)

Solution pool: 13 solutions saved.

MIP - Integer optimal, tolerance (0.01/1e-06):  Objective =  5.9859428119e+04
Current MIP best bound =  6.0176652551e+04 (gap = 317.224, 0.53%)
Solution time =   17.31 sec.  Iterations = 20843  Nodes = 10573 (412)
Deterministic time = 9384.34 ticks  (542.04 ticks/sec)

CPLEX> Incumbent solution written to file 'C:\Users\Luke\Desktop\competitiveMPEC_12.6\logs\tmprc4_bi_9.cplex.sol'.
CPLEX> NOTE: no warmstart specified for MIP iteration, default behavior is true
NOTE: resolving with all competitive generators using storage-only solution to warmstart
Solving...

Welcome to IBM(R) ILOG(R) CPLEX(R) Interactive Optimizer 12.9.0.0
  with Simplex, Mixed Integer & Barrier Optimizers
5725-A06 5725-A29 5724-Y48 5724-Y49 5724-Y54 5724-Y55 5655-Y21
Copyright IBM Corp. 1988, 2019.  All Rights Reserved.

Type 'help' for a list of available commands.
Type 'help' followed by a command name for more
information on commands.

CPLEX> Logfile 'cplex.log' closed.
Logfile 'C:\Users\Luke\Desktop\competitiveMPEC_12.6\logs\tmpnehqvpok.cplex.log' open.
CPLEX> New value for parallel optimization mode: -1
CPLEX> New value for mixed integer optimality gap tolerance: 0.01
CPLEX> New value for integrality tolerance: 1e-09
CPLEX> New value for feasibility tolerance: 0.01
CPLEX> New value for deterministic time limit in ticks: 175000
CPLEX> Problem 'C:\Users\Luke\Desktop\competitiveMPEC_12.6\logs\tmp3242ghl1.pyomo.lp' read.
Read time = 0.19 sec. (13.81 ticks)
CPLEX> MIP start file 'C:\Users\Luke\Desktop\competitiveMPEC_12.6\logs\tmpkl_e9aac.cplex.mst' read.
CPLEX> Problem name         : C:\Users\Luke\Desktop\competitiveMPEC_12.6\logs\tmp3242ghl1.pyomo.lp
Objective sense      : Maximize
Variables            :   54041  [Nneg: 1,  Box: 22526,  Free: 4416,
                                 Binary: 27098]
Objective nonzeros   :    9642
Linear constraints   :  122188  [Less: 41007,  Greater: 58612,  Equal: 22569]
  Nonzeros           :  288542
  RHS nonzeros       :   66971

Variables            : Min LB: -5000.000        Max UB: 1000000.       
Objective nonzeros   : Min   : 1.600000         Max   : 793.8000       
Linear constraints   :
  Nonzeros           : Min   : 0.8500000        Max   : 1000000.       
  RHS nonzeros       : Min   : 1.000000         Max   : 1000000.       
CPLEX> CPXPARAM_Parallel                                -1
CPXPARAM_Simplex_Tolerances_Feasibility          0.01
CPXPARAM_DetTimeLimit                            175000
CPXPARAM_MIP_Tolerances_MIPGap                   0.01
CPXPARAM_MIP_Tolerances_Integrality              1.0000000000000001e-09
Warning:  No solution found from 1 MIP starts.
Retaining values of one MIP start for possible repair.
Tried aggregator 3 times.
MIP Presolve eliminated 88267 rows and 19793 columns.
MIP Presolve added 3339 rows and 0 columns.
MIP Presolve modified 24544 coefficients.
Aggregator did 12872 substitutions.
Reduced MIP has 24388 rows, 20794 columns, and 68403 nonzeros.
Reduced MIP has 8217 binaries, 0 generals, 0 SOSs, and 0 indicators.
Presolve time = 0.22 sec. (170.85 ticks)
Probing fixed 404 vars, tightened 2862 bounds.
Probing time = 1.44 sec. (880.25 ticks)
Tried aggregator 2 times.
MIP Presolve eliminated 902 rows and 808 columns.
MIP Presolve modified 2154 coefficients.
Aggregator did 58 substitutions.
Reduced MIP has 23428 rows, 19928 columns, and 65617 nonzeros.
Reduced MIP has 7813 binaries, 0 generals, 0 SOSs, and 0 indicators.
Presolve time = 0.09 sec. (68.11 ticks)
Probing time = 0.03 sec. (15.69 ticks)
Clique table members: 6240.
MIP emphasis: balance optimality and feasibility.
MIP search method: dynamic search.
Parallel mode: opportunistic, using up to 24 threads.
Root relaxation solution time = 0.33 sec. (291.19 ticks)

        Nodes                                         Cuts/
   Node  Left     Objective  IInf  Best Integer    Best Bound    ItCnt     Gap

      0     0    62655.3398  1764                  62655.3398     6492         
      0     0    61440.8696   627                   Cuts: 554     6772         
      0     0    61382.1399   578                   Cuts: 220     6866         
      0     0    61254.1750   553                    Cuts: 84     6894         
      0     0    60916.9197   536                    Cuts: 34     6905         
      0     0    60915.9163   526                    Cuts: 36     6914         
      0     0    60915.9163   520                    Cuts: 27     6920         
      0     0    60907.9108   517                    Cuts: 28     6929         
      0     0    60901.9205   510                    Cuts: 34     6939         
      0     0    60901.9205   505                    Cuts: 30     6944         
      0     0    60901.9205   497                    Cuts: 29     6951         
Repair heuristic found nothing.
      0     5    infeasible                           Cuts: 6     7004         
Elapsed time = 8.84 sec. (5639.77 ticks, tree = 0.02 MB, solutions = 0)
    182    73    50458.5296   446                  60180.9496     8192         
    675   160    46045.0289   429                  60180.9496     8550         
   1189   838    47019.1534   429                  60180.9496    13260         
   2100   878    54563.8123   425                  60180.9496    13404         
   2957  2319    42873.7326   415                  60180.9496    14846         
   3712  2631    49851.3968   427                  60180.9496    14895         
   4491  3919    42873.7326   410                  60180.9496    15369         
   5463  4145    46072.1856   357                  60180.9496    15593         
   6640  4976    53288.9617   425                  60180.9496    18735         
   9928  8304    52649.2100   337                  60180.9496    20240         
Elapsed time = 17.05 sec. (8743.28 ticks, tree = 85.14 MB, solutions = 2)
* 10024  8150      integral     0    27458.3359    60180.9496    20193  119.17%
* 10200  8623      integral     0    46501.6693    60180.9496    20672   29.42%
  10464  5636        cutoff          46501.6693    60180.9496    31557   29.42%
  11045   223    58911.5180    98    46501.6693    60177.0866    33124   29.41%
  12658  1358        cutoff          46501.6693    60177.0866    38833   29.41%
* 13998  2233      integral     0    56072.9771    60177.0866    43752    7.32%
  14924  2575    58981.7399    71    56072.9771    60141.4473    45591    7.26%
  15330  2343    59422.6356    31    59420.9536    60141.4473    53206    1.21%
  16426  1532    59460.0474    74    59420.9536    60042.2360    58959    1.05%
  16807  1813    60021.8555   112    59420.9536    60042.2360    60118    1.05%

Clique cuts applied:  10
Cover cuts applied:  4
Implied bound cuts applied:  8
Flow cuts applied:  328
Mixed integer rounding cuts applied:  54
Zero-half cuts applied:  1
Gomory fractional cuts applied:  73

Root node processing (before b&c):
  Real time             =    8.28 sec. (5627.59 ticks)
Parallel b&c, 24 threads:
  Real time             =   30.25 sec. (13811.94 ticks)
  Sync time (average)   =    3.08 sec.
  Wait time (average)   =    0.08 sec.
                          ------------
Total (root+branch&cut) =   38.53 sec. (19439.54 ticks)

Solution pool: 5 solutions saved.

MIP - Integer optimal, tolerance (0.01/1e-06):  Objective =  5.9420953587e+04
Current MIP best bound =  6.0012187806e+04 (gap = 591.234, 0.99%)
Solution time =   38.55 sec.  Iterations = 60583  Nodes = 16808 (1901)
Deterministic time = 19439.69 ticks  (504.31 ticks/sec)

CPLEX> Incumbent solution written to file 'C:\Users\Luke\Desktop\competitiveMPEC_12.6\logs\tmp_kpnu9i0.cplex.sol'.
CPLEX> Exporting results... 
